benchmarks_vrp/CMT5/tsp_classic/CMT5_1.vrp
NAME: CMT5_1
TYPE: CVRP
COMMENT: 1291.29 - Cluster Nr.1
DIMENSION: 12
CAPACITY: 200
EDGE_WEIGHT_TYPE: EUC_2D
NODE_COORD_TYPE: TWOD_COORDS
NODE_COORD_SECTION: 
7 12 24
6 4 18
10 5 25
2 11 28
12 20 26
3 11 31
8 5 30
1 15 30
5 18 24
9 16 22
4 20 26
11 35 35
DEPOT_SECTION: 
11
-1
DEMAND_SECTION: 
1 26
9 41
12 9
8 2
10 23
4 9
2 6
6 35
7 13
3 7
5 22
11 0
EOF
