benchmarks_vrp/CMT5/tsp_classic/CMT5_1.tour
NAME: CMT5_1 solution
TYPE: TOUR
TOUR_SECTION:
11 1 3 2 8 10 6 7 9 5 12 4 -1
-1
EOF